
Gurobi 8.0.0 (win64, Python) logging started 06/14/18 14:19:47

Academic license - for non-commercial use only
Read LP format model from file H:\fscmodel\tmp0qhunnr3.pyomo.lp
Reading time = 0.00 seconds
x34: 19 rows, 34 columns, 32 nonzeros
Optimize a model with 19 rows, 34 columns and 32 nonzeros
Model has 10 quadratic constraints
Variable types: 24 continuous, 10 integer (10 binary)
Coefficient statistics:
  Matrix range     [4e-02, 1e+00]
  QMatrix range    [1e+00, 1e+00]
  QLMatrix range   [1e+00, 1e+00]
  Objective range  [1e-02, 5e-02]
  Bounds range     [1e+00, 1e+00]
  RHS range        [1e+00, 1e+03]
Presolve removed 18 rows and 26 columns
Presolve time: 0.00s

Explored 0 nodes (0 simplex iterations) in 0.02 seconds
Thread count was 1 (of 4 available processors)

Solution count 0

Best objective -, best bound -, gap -
Freed default Gurobi environment

Gurobi 8.0.0 (win64, Python) logging started 06/14/18 14:23:41

Academic license - for non-commercial use only
Read LP format model from file H:\fscmodel\tmpsgznfntf.pyomo.lp
Reading time = 0.00 seconds
x34: 19 rows, 34 columns, 32 nonzeros
Optimize a model with 19 rows, 34 columns and 32 nonzeros
Model has 10 quadratic constraints
Variable types: 24 continuous, 10 integer (10 binary)
Coefficient statistics:
  Matrix range     [4e-02, 1e+00]
  QMatrix range    [1e+00, 1e+00]
  QLMatrix range   [1e+00, 1e+00]
  Objective range  [1e-02, 5e-02]
  Bounds range     [1e+00, 1e+00]
  RHS range        [1e+00, 1e+03]
Presolve removed 18 rows and 26 columns
Presolve time: 0.00s

Explored 0 nodes (0 simplex iterations) in 0.02 seconds
Thread count was 1 (of 4 available processors)

Solution count 0

Best objective -, best bound -, gap -
Freed default Gurobi environment

Gurobi 8.0.0 (win64, Python) logging started 06/14/18 14:25:16

Academic license - for non-commercial use only
Read LP format model from file H:\fscmodel\tmpf_o6el3_.pyomo.lp
Reading time = 0.00 seconds
x34: 19 rows, 34 columns, 32 nonzeros
Optimize a model with 19 rows, 34 columns and 32 nonzeros
Model has 10 quadratic constraints
Variable types: 24 continuous, 10 integer (10 binary)
Coefficient statistics:
  Matrix range     [4e-02, 1e+00]
  QMatrix range    [1e+00, 1e+00]
  QLMatrix range   [1e+00, 1e+00]
  Objective range  [1e-02, 5e-02]
  Bounds range     [1e+00, 1e+00]
  RHS range        [1e+00, 1e+03]
Presolve removed 18 rows and 26 columns
Presolve time: 0.00s

Explored 0 nodes (0 simplex iterations) in 0.00 seconds
Thread count was 1 (of 4 available processors)

Solution count 0

Best objective -, best bound -, gap -
Freed default Gurobi environment
